certificates/rado_a15_c25_N76.cnf
c Rad2 upper bound instance: x1 + 15*x2 - x3 = 25, interval [1,76]
p cnf 76 542
1 2 6 0
-1 -2 -6 0
1 3 21 0
-1 -3 -21 0
1 4 36 0
-1 -4 -36 0
1 5 51 0
-1 -5 -51 0
1 6 66 0
-1 -6 -66 0
2 7 0
-2 -7 0
2 3 22 0
-2 -3 -22 0
2 4 37 0
-2 -4 -37 0
2 5 52 0
-2 -5 -52 0
2 6 67 0
-2 -6 -67 0
2 3 8 0
-2 -3 -8 0
3 23 0
-3 -23 0
3 4 38 0
-3 -4 -38 0
3 5 53 0
-3 -5 -53 0
3 6 68 0
-3 -6 -68 0
2 4 9 0
-2 -4 -9 0
3 4 24 0
-3 -4 -24 0
4 39 0
-4 -39 0
4 5 54 0
-4 -5 -54 0
4 6 69 0
-4 -6 -69 0
2 5 10 0
-2 -5 -10 0
3 5 25 0
-3 -5 -25 0
4 5 40 0
-4 -5 -40 0
5 55 0
-5 -55 0
5 6 70 0
-5 -6 -70 0
2 6 11 0
-2 -6 -11 0
3 6 26 0
-3 -6 -26 0
4 6 41 0
-4 -6 -41 0
5 6 56 0
-5 -6 -56 0
6 71 0
-6 -71 0
2 7 12 0
-2 -7 -12 0
3 7 27 0
-3 -7 -27 0
4 7 42 0
-4 -7 -42 0
5 7 57 0
-5 -7 -57 0
6 7 72 0
-6 -7 -72 0
2 8 13 0
-2 -8 -13 0
3 8 28 0
-3 -8 -28 0
4 8 43 0
-4 -8 -43 0
5 8 58 0
-5 -8 -58 0
6 8 73 0
-6 -8 -73 0
2 9 14 0
-2 -9 -14 0
3 9 29 0
-3 -9 -29 0
4 9 44 0
-4 -9 -44 0
5 9 59 0
-5 -9 -59 0
6 9 74 0
-6 -9 -74 0
2 10 15 0
-2 -10 -15 0
3 10 30 0
-3 -10 -30 0
4 10 45 0
-4 -10 -45 0
5 10 60 0
-5 -10 -60 0
6 10 75 0
-6 -10 -75 0
1 11 0
-1 -11 0
2 11 16 0
-2 -11 -16 0
3 11 31 0
-3 -11 -31 0
4 11 46 0
-4 -11 -46 0
5 11 61 0
-5 -11 -61 0
6 11 76 0
-6 -11 -76 0
1 2 12 0
-1 -2 -12 0
2 12 17 0
-2 -12 -17 0
3 12 32 0
-3 -12 -32 0
4 12 47 0
-4 -12 -47 0
5 12 62 0
-5 -12 -62 0
1 3 13 0
-1 -3 -13 0
2 13 18 0
-2 -13 -18 0
3 13 33 0
-3 -13 -33 0
4 13 48 0
-4 -13 -48 0
5 13 63 0
-5 -13 -63 0
1 4 14 0
-1 -4 -14 0
2 14 19 0
-2 -14 -19 0
3 14 34 0
-3 -14 -34 0
4 14 49 0
-4 -14 -49 0
5 14 64 0
-5 -14 -64 0
1 5 15 0
-1 -5 -15 0
2 15 20 0
-2 -15 -20 0
3 15 35 0
-3 -15 -35 0
4 15 50 0
-4 -15 -50 0
5 15 65 0
-5 -15 -65 0
1 6 16 0
-1 -6 -16 0
2 16 21 0
-2 -16 -21 0
3 16 36 0
-3 -16 -36 0
4 16 51 0
-4 -16 -51 0
5 16 66 0
-5 -16 -66 0
1 7 17 0
-1 -7 -17 0
2 17 22 0
-2 -17 -22 0
3 17 37 0
-3 -17 -37 0
4 17 52 0
-4 -17 -52 0
5 17 67 0
-5 -17 -67 0
1 8 18 0
-1 -8 -18 0
2 18 23 0
-2 -18 -23 0
3 18 38 0
-3 -18 -38 0
4 18 53 0
-4 -18 -53 0
5 18 68 0
-5 -18 -68 0
1 9 19 0
-1 -9 -19 0
2 19 24 0
-2 -19 -24 0
3 19 39 0
-3 -19 -39 0
4 19 54 0
-4 -19 -54 0
5 19 69 0
-5 -19 -69 0
1 10 20 0
-1 -10 -20 0
2 20 25 0
-2 -20 -25 0
3 20 40 0
-3 -20 -40 0
4 20 55 0
-4 -20 -55 0
5 20 70 0
-5 -20 -70 0
1 11 21 0
-1 -11 -21 0
2 21 26 0
-2 -21 -26 0
3 21 41 0
-3 -21 -41 0
4 21 56 0
-4 -21 -56 0
5 21 71 0
-5 -21 -71 0
1 12 22 0
-1 -12 -22 0
2 22 27 0
-2 -22 -27 0
3 22 42 0
-3 -22 -42 0
4 22 57 0
-4 -22 -57 0
5 22 72 0
-5 -22 -72 0
1 13 23 0
-1 -13 -23 0
2 23 28 0
-2 -23 -28 0
3 23 43 0
-3 -23 -43 0
4 23 58 0
-4 -23 -58 0
5 23 73 0
-5 -23 -73 0
1 14 24 0
-1 -14 -24 0
2 24 29 0
-2 -24 -29 0
3 24 44 0
-3 -24 -44 0
4 24 59 0
-4 -24 -59 0
5 24 74 0
-5 -24 -74 0
1 15 25 0
-1 -15 -25 0
2 25 30 0
-2 -25 -30 0
3 25 45 0
-3 -25 -45 0
4 25 60 0
-4 -25 -60 0
5 25 75 0
-5 -25 -75 0
1 16 26 0
-1 -16 -26 0
2 26 31 0
-2 -26 -31 0
3 26 46 0
-3 -26 -46 0
4 26 61 0
-4 -26 -61 0
5 26 76 0
-5 -26 -76 0
1 17 27 0
-1 -17 -27 0
2 27 32 0
-2 -27 -32 0
3 27 47 0
-3 -27 -47 0
4 27 62 0
-4 -27 -62 0
1 18 28 0
-1 -18 -28 0
2 28 33 0
-2 -28 -33 0
3 28 48 0
-3 -28 -48 0
4 28 63 0
-4 -28 -63 0
1 19 29 0
-1 -19 -29 0
2 29 34 0
-2 -29 -34 0
3 29 49 0
-3 -29 -49 0
4 29 64 0
-4 -29 -64 0
1 20 30 0
-1 -20 -30 0
2 30 35 0
-2 -30 -35 0
3 30 50 0
-3 -30 -50 0
4 30 65 0
-4 -30 -65 0
1 21 31 0
-1 -21 -31 0
2 31 36 0
-2 -31 -36 0
3 31 51 0
-3 -31 -51 0
4 31 66 0
-4 -31 -66 0
1 22 32 0
-1 -22 -32 0
2 32 37 0
-2 -32 -37 0
3 32 52 0
-3 -32 -52 0
4 32 67 0
-4 -32 -67 0
1 23 33 0
-1 -23 -33 0
2 33 38 0
-2 -33 -38 0
3 33 53 0
-3 -33 -53 0
4 33 68 0
-4 -33 -68 0
1 24 34 0
-1 -24 -34 0
2 34 39 0
-2 -34 -39 0
3 34 54 0
-3 -34 -54 0
4 34 69 0
-4 -34 -69 0
1 25 35 0
-1 -25 -35 0
2 35 40 0
-2 -35 -40 0
3 35 55 0
-3 -35 -55 0
4 35 70 0
-4 -35 -70 0
1 26 36 0
-1 -26 -36 0
2 36 41 0
-2 -36 -41 0
3 36 56 0
-3 -36 -56 0
4 36 71 0
-4 -36 -71 0
1 27 37 0
-1 -27 -37 0
2 37 42 0
-2 -37 -42 0
3 37 57 0
-3 -37 -57 0
4 37 72 0
-4 -37 -72 0
1 28 38 0
-1 -28 -38 0
2 38 43 0
-2 -38 -43 0
3 38 58 0
-3 -38 -58 0
4 38 73 0
-4 -38 -73 0
1 29 39 0
-1 -29 -39 0
2 39 44 0
-2 -39 -44 0
3 39 59 0
-3 -39 -59 0
4 39 74 0
-4 -39 -74 0
1 30 40 0
-1 -30 -40 0
2 40 45 0
-2 -40 -45 0
3 40 60 0
-3 -40 -60 0
4 40 75 0
-4 -40 -75 0
1 31 41 0
-1 -31 -41 0
2 41 46 0
-2 -41 -46 0
3 41 61 0
-3 -41 -61 0
4 41 76 0
-4 -41 -76 0
1 32 42 0
-1 -32 -42 0
2 42 47 0
-2 -42 -47 0
3 42 62 0
-3 -42 -62 0
1 33 43 0
-1 -33 -43 0
2 43 48 0
-2 -43 -48 0
3 43 63 0
-3 -43 -63 0
1 34 44 0
-1 -34 -44 0
2 44 49 0
-2 -44 -49 0
3 44 64 0
-3 -44 -64 0
1 35 45 0
-1 -35 -45 0
2 45 50 0
-2 -45 -50 0
3 45 65 0
-3 -45 -65 0
1 36 46 0
-1 -36 -46 0
2 46 51 0
-2 -46 -51 0
3 46 66 0
-3 -46 -66 0
1 37 47 0
-1 -37 -47 0
2 47 52 0
-2 -47 -52 0
3 47 67 0
-3 -47 -67 0
1 38 48 0
-1 -38 -48 0
2 48 53 0
-2 -48 -53 0
3 48 68 0
-3 -48 -68 0
1 39 49 0
-1 -39 -49 0
2 49 54 0
-2 -49 -54 0
3 49 69 0
-3 -49 -69 0
1 40 50 0
-1 -40 -50 0
2 50 55 0
-2 -50 -55 0
3 50 70 0
-3 -50 -70 0
1 41 51 0
-1 -41 -51 0
2 51 56 0
-2 -51 -56 0
3 51 71 0
-3 -51 -71 0
1 42 52 0
-1 -42 -52 0
2 52 57 0
-2 -52 -57 0
3 52 72 0
-3 -52 -72 0
1 43 53 0
-1 -43 -53 0
2 53 58 0
-2 -53 -58 0
3 53 73 0
-3 -53 -73 0
1 44 54 0
-1 -44 -54 0
2 54 59 0
-2 -54 -59 0
3 54 74 0
-3 -54 -74 0
1 45 55 0
-1 -45 -55 0
2 55 60 0
-2 -55 -60 0
3 55 75 0
-3 -55 -75 0
1 46 56 0
-1 -46 -56 0
2 56 61 0
-2 -56 -61 0
3 56 76 0
-3 -56 -76 0
1 47 57 0
-1 -47 -57 0
2 57 62 0
-2 -57 -62 0
1 48 58 0
-1 -48 -58 0
2 58 63 0
-2 -58 -63 0
1 49 59 0
-1 -49 -59 0
2 59 64 0
-2 -59 -64 0
1 50 60 0
-1 -50 -60 0
2 60 65 0
-2 -60 -65 0
1 51 61 0
-1 -51 -61 0
2 61 66 0
-2 -61 -66 0
1 52 62 0
-1 -52 -62 0
2 62 67 0
-2 -62 -67 0
1 53 63 0
-1 -53 -63 0
2 63 68 0
-2 -63 -68 0
1 54 64 0
-1 -54 -64 0
2 64 69 0
-2 -64 -69 0
1 55 65 0
-1 -55 -65 0
2 65 70 0
-2 -65 -70 0
1 56 66 0
-1 -56 -66 0
2 66 71 0
-2 -66 -71 0
1 57 67 0
-1 -57 -67 0
2 67 72 0
-2 -67 -72 0
1 58 68 0
-1 -58 -68 0
2 68 73 0
-2 -68 -73 0
1 59 69 0
-1 -59 -69 0
2 69 74 0
-2 -69 -74 0
1 60 70 0
-1 -60 -70 0
2 70 75 0
-2 -70 -75 0
1 61 71 0
-1 -61 -71 0
2 71 76 0
-2 -71 -76 0
1 62 72 0
-1 -62 -72 0
1 63 73 0
-1 -63 -73 0
1 64 74 0
-1 -64 -74 0
1 65 75 0
-1 -65 -75 0
1 66 76 0
-1 -66 -76 0
