certificates/rado_a15_c25_N76.drat
2 6 0
d 2 1 6 0
-71 -76 0
-76 0
-2 -6 0
d -2 -1 -6 0
-6 0
71 0
11 0
2 0
-66 0
-1 0
-16 0
-7 0
0
